NAME : LPS-n6-m76
COMMENT : (Lartu-Peter-Santi Plot, instance 1276 out of 39200. 6 customers.)
TYPE : CVRP
DIMENSION : 6
EDGE_WEIGHT_TYPE : EUC_2D
CAPACITY : 130
NODE_COORD_SECTION
 1 79 49
 2 48 92
 3 64 56
 4 38 99
 5 77 11
 6 60 89
DEMAND_SECTION
1 0
2 41
3 21
4 25
5 10
6 102
DEPOT_SECTION
 1
 -1
EOF
